1 1
2 1
3 2
4 1
5 1
6 1
7 2
8 1
9 1
10 1
11 2
12 2
13 2
14 1
15 2
16 2
17 2
18 2
19 1
20 2
21 2
22 2
23 2
24 2
25 1
26 1
27 2
28 2
29 2
30 2
31 2
32 2
33 1
34 1
35 1
36 2
37 2
38 2
39 1
40 1
41 1
42 2
43 2
44 1
45 1
46 2
47 2
48 2
49 1
50 1
51 2
52 2
53 1
54 1
55 2
56 1
57 2
58 2
59 1
60 1
61 2
62 2
63 2
64 2
65 1
66 1
67 2
68 2
69 2
70 1
71 1
72 2
73 1
74 1
75 2
76 1
77 2
78 2
79 2
80 1
81 1
82 1
83 2
84 1
85 2
86 2
87 1
88 2
89 1
90 1
91 2
92 2
93 2
94 1
95 2
96 1
97 2
98 1
99 2
100 2
101 2
102 1
103 2
104 2
105 1
106 1
107 1
108 2
109 2
110 2
111 1
112 2
113 2
114 2
115 1
116 1
117 1
118 1
119 2
120 2
121 2
122 1
123 1
124 2
125 2
126 2
127 2
128 2
129 2
130 1
131 2
132 1
133 2
134 1
135 2
136 2
137 1
138 1
139 1
140 2
141 2
142 2
143 1
144 2
145 1
146 1
147 2
148 2
149 1
150 1
151 1
152 1
153 2
154 2
155 1
156 1
157 1
158 2
159 2
160 1
161 2
162 2
163 2
164 2
165 2
166 1
167 1
168 1
169 2
170 1
171 2
172 2
173 2
174 2
175 1
176 1
177 2
178 1
179 2
180 2
181 1
182 2
183 2
184 2
185 1
186 1
187 2
188 2
189 1
190 2
191 2
192 1
193 1
194 1
195 2
196 2
197 2
198 2
199 2
200 2
201 2
202 2
203 1
204 1
205 2
206 2
207 1
208 2
209 2
210 1
211 1
212 1
213 2
214 2
215 2
216 1
217 2
218 2
219 1
220 1
221 2
222 2
223 2
224 1
225 1
226 2
227 2
228 1
229 1
230 2
231 2
232 1
233 1
234 2
235 2
236 1
237 1
238 2
239 1
240 2
241 1
242 1
243 2
244 2
245 2
246 2
247 2
248 1
249 1
250 1
251 1
252 2
253 2
254 1
255 2
256 1
257 2
258 2
259 1
260 2
261 2
262 2
263 1
264 2
265 2
266 1
267 1
268 2
269 1
270 2
271 1
272 1
273 1
274 1
275 2
276 1
277 2
278 1
279 2
280 2
281 2
282 1
283 2
284 1
285 1
286 1
287 2
288 2
289 1
290 2
291 1
292 2
293 1
294 1
295 2
296 1
297 2
298 2
299 2
300 1
301 1
302 1
303 1
304 1
305 2
306 1
307 2
308 2
309 2
310 1
311 2
312 1
313 2
314 1
315 2
316 2
317 2
318 1
319 1
320 1
321 2
322 2
323 2
324 1
325 1
326 2
327 1
328 1
329 2
330 1
331 2
332 2
333 1
334 2
335 2
336 2
337 2
338 2
339 1
340 1
341 2
342 1
343 1
344 1
345 2
346 1
347 1
348 1
349 2
350 1
351 1
352 2
353 2
354 1
355 1
356 1
357 1
358 2
359 1
360 1
361 1
362 1
363 2
364 1
365 1
366 2
367 2
368 2
369 1
370 2
371 1
372 2
373 2
374 2
375 2
376 1
377 2
378 1
379 2
380 2
381 1
382 1
383 2
384 2
385 2
386 2
387 1
388 1
389 2
390 1
391 1
392 1
393 1
394 1
395 2
396 2
397 1
398 1
399 1
400 2
401 2
402 2
403 1
404 2
405 1
406 2
407 2
408 1
409 1
410 2
411 1
412 1
413 2
414 1
415 2
416 2
417 2
418 1
419 2
420 1
421 2
422 2
423 1
424 2
425 1
426 2
427 1
428 2
429 1
430 2
431 2
432 2
433 1
434 1
435 2
436 1
437 1
438 2
439 2
440 2
441 2
442 2
443 2
444 2
445 2
446 2
447 2
448 2
449 2
450 2
451 2
452 1
453 1
454 1
455 1
456 2
457 2
458 1
459 1
460 2
461 1
462 1
463 2
464 2
465 1
466 2
467 1
468 2
469 1
470 1
471 1
472 1
473 1
474 2
475 1
476 2
477 2
478 2
479 1
480 2
481 1
482 1
483 1
484 2
485 2
486 2
487 2
488 1
489 1
490 1
491 1
492 1
493 1
494 1
495 2
496 1
497 1
498 1
499 1
500 2
501 1
502 1
503 2
504 1
505 1
506 2
507 1
508 2
509 1
510 2
511 2
512 2
513 2
514 1
515 1
516 1
517 1
518 1
519 2
520 2
521 1
522 1
523 1
524 1
525 2
526 1
527 1
528 2
529 1
530 1
531 2
532 1
533 2
534 1
535 1
536 2
537 1
538 1
539 1
540 1
541 2
542 2
543 1
544 1
545 1
546 1
547 2
548 1
549 1
550 1
551 2
552 1
553 2
554 1
555 2
556 1
557 1
558 1
559 2
560 2
561 1
562 2
563 2
564 1
565 2
566 2
567 1
568 1
569 1
570 2
571 1
572 1
573 1
574 1
575 2
576 2
577 1
578 2
579 1
580 1
581 2
582 1
583 2
584 1
585 2
586 2
587 2
588 2
589 1
590 1
591 2
592 2
593 1
594 2
595 1
596 2
597 2
598 1
599 1
600 2
601 1
602 2
603 1
604 1
605 1
606 1
607 2
608 2
609 2
610 1
611 2
612 2
613 1
614 2
615 1
616 2
617 2
618 1
619 1
620 2
621 2
622 2
623 1
624 1
625 2
626 2
627 1
628 2
629 2
630 1
631 2
632 2
633 2
634 1
635 1
636 2
637 2
638 2
639 2
640 1
641 1
642 1
643 1
644 2
645 2
646 1
647 2
648 2
649 1
650 1
651 1
652 1
653 2
654 2
655 2
656 2
657 1
658 1
659 1
660 1
661 1
662 1
663 1
664 1
665 2
666 2
667 1
668 2
669 1
670 2
671 1
672 2
673 2
674 1
675 1
676 2
677 1
678 2
679 2
680 2
681 2
682 1
683 2
684 1
685 1
686 1
687 2
688 1
689 2
690 2
691 1
692 1
693 2
694 2
695 1
696 2
697 2
698 1
699 1
700 2
701 1
702 2
703 1
704 2
705 1
706 1
707 2
708 2
709 2
710 1
711 1
712 2
713 2
714 2
715 2
716 2
717 2
718 2
719 2
720 2
721 1
722 1
723 2
724 1
725 1
726 2
727 1
728 1
729 1
730 1
731 2
732 1
733 2
734 1
735 2
736 2
737 1
738 2
739 1
740 2
741 1
742 2
743 2
744 2
745 1
746 1
747 1
748 2
749 1
750 1
751 1
752 1
753 1
754 1
755 2
756 1
757 1
758 2
759 2
760 1
761 1
762 1
763 1
764 2
765 2
766 2
767 2
768 1
769 1
770 1
771 1
772 2
773 1
774 1
775 2
776 2
777 1
778 2
779 1
780 1
781 1
782 1
783 1
784 1
785 1
786 1
787 2
788 2
789 1
790 1
791 1
792 2
793 1
794 2
795 2
796 1
797 1
798 2
799 1
800 1
801 2
802 2
803 2
804 2
805 2
806 1
807 2
808 2
809 1
810 2
811 1
812 2
813 1
814 1
815 1
816 1
817 1
818 2
819 2
820 1
821 1
822 2
823 2
824 2
825 2
826 1
827 1
828 1
829 2
830 2
831 2
832 1
833 2
834 1
835 2
836 2
837 1
838 2
839 1
840 1
841 1
842 1
843 1
844 2
845 1
846 1
847 2
848 2
849 1
850 1
851 2
852 2
853 1
854 1
855 2
856 1
857 2
858 2
859 1
860 2
861 1
862 1
863 1
864 2
865 1
866 1
867 2
868 2
869 1
870 1
871 2
872 2
873 2
874 2
875 2
876 2
877 2
878 1
879 1
880 2
881 2
882 1
883 1
884 2
885 1
886 2
887 1
888 1
889 1
890 1
891 1
892 2
893 1
894 1
895 1
896 1
897 1
898 2
899 2
900 2
